c E(0,1) E(1,0) E(0,2) E(2,0) E(0,3) E(3,0) E(1,2) E(2,1) E(1,3) E(3,1) E(2,3) E(3,2)
c 1      2      3      4      5      6      7      8      9      10     11     12
c E2(0,1) E2(1,0) E2(0,2) E2(2,0) E2(0,3) E2(3,0) E2(1,2) E2(2,1) E2(1,3) E2(3,1) E2(2,3) E2(3,2)
c 13      14      15      16      17      18      19      20      21      22      23      24
p cnf 24 44
1 3 5 0
2 7 9 0
4 8 11 0
6 10 12 0
-1 2 0
1 -2 0
-3 4 0
3 -4 0
-5 6 0
5 -6 0
-7 8 0
7 -8 0
-9 10 0
9 -10 0
-11 12 0
11 -12 0
13 15 17 0
14 19 21 0
16 20 23 0
18 22 24 0
-13 14 0
13 -14 0
-15 16 0
15 -16 0
-17 18 0
17 -18 0
-19 20 0
19 -20 0
-21 22 0
21 -22 0
-23 24 0
23 -24 0
-1 -13 0
-2 -14 0
-3 -15 0
-4 -16 0
-5 -17 0
-6 -18 0
-7 -19 0
-8 -20 0
-9 -21 0
-10 -22 0
-11 -23 0
-12 -24 0

